sat
(:added-eqs                       632
 :arith-eq-adapter                226
 :arith-bound-propagations-lp     123
 :arith-branch                    2
 :arith-conflicts                 450
 :arith-diseq                     356
 :arith-fixed-eqs                 109
 :arith-gcd-calls                 19
 :arith-grobner-calls             80
 :arith-grobner-conflicts         37
 :arith-horner-calls              21
 :arith-horner-conflicts          3
 :arith-horner-cross-nested-forms 4665
 :arith-lower                     803
 :arith-make-feasible             957
 :arith-max-columns               276
 :arith-max-rows                  118
 :arith-nla-add-bounds            28
 :arith-nla-lemmas                238
 :arith-nla-propagate-bounds      137
 :arith-nla-propagate-eq          898
 :arith-nra-calls                 8
 :arith-offset-eqs                31
 :arith-patches                   19
 :arith-patches-success           16
 :arith-upper                     973
 :binary-propagations             346
 :conflicts                       112
 :decisions                       1013
 :del-clause                      634
 :final-checks                    189
 :max-memory                      101.65
 :memory                          58.27
 :minimized-lits                  31
 :mk-bool-var                     1479
 :mk-clause                       976
 :mk-clause-binary                644
 :nlsat-conflicts                 693
 :nlsat-decisions                 16
 :nlsat-propagations              9164
 :nlsat-stages                    4144
 :num-allocs                      248726018
 :num-checks                      1
 :propagations                    1310
 :restarts                        1
 :rlimit-count                    768714
 :sat-mk-clause-2ary              141189
 :sat-mk-clause-nary              188899
 :sat-mk-var                      95389
 :sls-arith-moves                 2487
 :sls-ddfw-flips                  259.00
 :sls-ddfw-shifts                 1.00
 :sls-num-guided-search           18
 :sls-repair-down                 149
 :sls-repair-up                   278
 :time                            0.82
 :total-time                      0.82)
